CMD:
./solvers/bin/cadical --plain --no-reduce -t 1600 ./data/cnfs//oski15a08b08s/oski15a08b08s.37.cnf

c --- [ banner ] -------------------------------------------------------------
c 
c CaDiCaL SAT Solver
c Copyright (c) 2016-2024
c A. Biere, M. Fleury, N. Froleyks, K. Fazekas, F. Pollitt, T. Faller
c JKU Linz, University of Freiburg, TU Wien
c 
c Version 2.1.3 5296d3d2a9bf48c154ab2acb5e44625776d821bf
c g++ (Gentoo 12.3.1_p20230526 p2) 12.3.1 20230526 -Wall -Wextra -O3 -DNDEBUG
c Sat Aug 9 07:26:21 PDT 2025 Linux cedar2.int.cedar.computecanada.ca 5.14.0-362.24.2.el9_3.x86_64 x86_64
c 
c --- [ limit ] --------------------------------------------------------------
c 
c setting time limit to 1600 seconds real time (due to '-t 1600')
c 
c --- [ parsing input ] ------------------------------------------------------
c 
c reading DIMACS file from './data/cnfs//oski15a08b08s/oski15a08b08s.37.cnf'
c opening file to read './data/cnfs//oski15a08b08s/oski15a08b08s.37.cnf'
c found 'p cnf 31369220 92287387' header
c parsed 92287387 clauses in 16.14 seconds process time
c 
c --- [ options ] ------------------------------------------------------------
c 
c   --compact=false                (different from default 'true')
c   --decompose=false              (different from default 'true')
c   --deduplicate=false            (different from default 'true')
c   --elim=false                   (different from default 'true')
c   --probe=false                  (different from default 'true')
c   --reduce=false                 (different from default 'true')
c   --subsume=false                (different from default 'true')
c   --ternary=false                (different from default 'true')
c   --transred=false               (different from default 'true')
c   --vivify=false                 (different from default 'true')
c 
c --- [ solving ] ------------------------------------------------------------
c 
c time measured in process time since initialization
c 
c  seconds     reductions  redundant   irredundant
c           MB     restarts       trail          variables
c             level   conflicts       glue              remaining
c 
c * 16.14 13911  0 0   0    0    0  0% 0 88154196 26221207 84%
c { 17.83 13946  0 0   0    0    0  0% 0 88154196 26221207 84%
c i 34.20 13965 14576 0  20  265  244 37% 6 88154196 26221201 84%
c i 34.22 13965 14980 0  20  275  251 37% 6 88154196 26221197 84%
c i 34.24 13965 15234 0  20  281  256 38% 6 88154196 26221191 84%
c i 34.24 13965 15767 0  20  295  266 38% 5 88154196 26221189 84%
c i 34.24 13965 16016 0  20  303  271 38% 5 88154196 26221182 84%
c i 34.24 13965 16136 0  20  306  272 39% 5 88154196 26221174 84%
c i 34.24 13965 16701 0  20  322  284 39% 5 88154196 26221165 84%
c i 34.24 13965 17146 0  20  335  294 40% 5 88154196 26221161 84%
c i 37.27 13965 19507 0  21  564  507 41% 5 88154196 26220958 84%
c i 37.27 13965 19541 0  21  567  509 41% 5 88154196 26220954 84%
c } 46.20 13966 15844 0  52 1000  900 37% 4 88154196 26220954 84%
c [ 46.20 13966  0 0  52 1000  900  0% 0 88154196 26220954 84%
c O 47.47 13966 19694 0  52 1002  902 38% 2 88154196 26220954 84%
c ] 71.46 14034 18693 0  53 2201 2092 68% 3 88154196 26220954 84%
c 1 71.46 14034 18693 0  53 2201 2092 68% 3 88154196 26220954 84%
c 
c --- [ result ] -------------------------------------------------------------
c 
s SATISFIABLE
v 1 2 3 4 5 6 7 -8 9 10 11 12 13 14 15 -16 17 -18 19 20 21 22 23 24 25 26 27
v 28 29 30 31 32 33 34 35 36 37 38 39 40 41 42 43 44 45 46 47 48 49 50 51 52
v 53 54 55 56 57 58 59 60 61 62 63 64 -65 -66 67 68 69 70 71 72 73 74 75 76 77
v 78 79 80 81 82 83 84 85 86 87 88 89 90 91 92 93 94 95 96 97 98 99 100 101
v 102 103 104 105 106 107 108 109 110 111 112 113 114 115 116 117 118 119 120
v 121 -122 123 124 125 126 127 128 129 130 131 -132 133 -134 -135 -136 -137
v -138 -139 -140 -141 -142 -143 -144 -145 -146 -147 -148 -149 -150 -151 -152
v -153 -154 -155 -156 -157 -158 -159 -160 -161 -162 -163 -164 -165 -166 -167
v -168 -169 -170 -171 -172 -173 174 175 176 177 178 179 180 181 182 183 184
v 185 186 187 188 189 190 191 192 193 194 195 196 197 198 -199 200 -201 -202
v -203 -204 -205 -206 -207 -208 -209 -210 -211 -212 -213 -214 -215 -216 -217
v -218 -219 -220 -221 -222 -223 -224 -225 -226 -227 -228 -229 -230 -231 -232
v -233 -234 -235 -236 -237 -238 -239 -240 241 242 243 244 245 246 247 248 249
v 250 251 252 253 254 255 256 257 258 259 260 261 262 263 264 265 -266 267 268
v 269 270 271 272 273 274 275 -276 277 278 279 280 281 282 283 284 285 -286
v 287 288 289 290 291 292 293 294 295 -296 297 298 299 300 301 302 303 304 305
v -306 307 308 309 310 311 312 313 314 315 -316 317 318 319 320 321 322 323
v 324 325 -326 327 328 329 330 331 332 333 334 335 -336 337 338 339 340 341
v 342 343 344 345 -346 347 348 349 350 351 352 353 354 355 -356 357 358 359
v 360 361 362 363 364 365 -366 367 368 369 370 371 372 373 374 375 -376 377
v 378 379 380 381 382 383 384 385 -386 387 388 389 390 391 392 393 394 395
v -396 397 398 399 400 401 402 403 404 -405 -406 407 408 409 410 411 412 413
v 414 -415 -416 417 418 419 420 421 422 423 424 -425 -426 427 428 429 430 431
v 432 433 434 -435 -436 437 438 439 440 441 442 443 444 -445 -446 447 448 449
v 450 -451 452 453 454 455 -456 457 458 459 460 -461 462 463 464 465 -466 467
v 468 469 470 -471 472 473 474 475 -476 477 478 479 480 -481 482 483 484 485
v -486 487 488 489 490 491 492 493 494 495 496 497 498 499 500 501 502 503 504
v 505 506 507 508 509 510 511 512 513 514 515 516 517 518 519 520 521 522 523
v 524 525 526 527 528 529 530 531 532 533 534 535 536 537 538 539 540 541 542
v 543 544 545 546 547 548 549 550 551 552 553 554 555 556 557 558 559 560 561
v 562 563 564 565 566 567 568 569 570 571 572 573 574 -575 576 -577 578 -579
v -580 -581 582 583 584 585 586 587 588 589 590 591 592 593 594 595 596 597
v 598 599 600 601 602 603 604 605 606 607 608 609 610 611 612 613 614 615 616
... skipped 3843210 lines ...
v -31368828 31368829 -31368830 -31368831 31368832 31368833 -31368834 -31368835
v -31368836 31368837 -31368838 31368839 -31368840 -31368841 31368842 31368843
v -31368844 -31368845 -31368846 -31368847 31368848 -31368849 -31368850
v 31368851 31368852 -31368853 -31368854 -31368855 31368856 -31368857 31368858
v -31368859 -31368860 31368861 31368862 -31368863 -31368864 -31368865
v -31368866 31368867 -31368868 -31368869 31368870 31368871 -31368872 -31368873
v -31368874 31368875 -31368876 31368877 -31368878 -31368879 31368880 31368881
v -31368882 -31368883 -31368884 -31368885 31368886 -31368887 -31368888
v 31368889 31368890 -31368891 -31368892 -31368893 31368894 -31368895 31368896
v -31368897 -31368898 31368899 31368900 -31368901 -31368902 -31368903
v -31368904 31368905 -31368906 -31368907 31368908 31368909 -31368910 -31368911
v -31368912 31368913 -31368914 31368915 -31368916 -31368917 31368918 31368919
v -31368920 -31368921 -31368922 -31368923 31368924 -31368925 -31368926
v 31368927 31368928 -31368929 -31368930 -31368931 31368932 -31368933 31368934
v -31368935 -31368936 31368937 31368938 -31368939 -31368940 -31368941
v -31368942 31368943 -31368944 -31368945 31368946 31368947 -31368948 -31368949
v -31368950 31368951 -31368952 31368953 -31368954 -31368955 31368956 31368957
v -31368958 -31368959 -31368960 -31368961 31368962 -31368963 -31368964
v 31368965 31368966 -31368967 -31368968 -31368969 31368970 -31368971 31368972
v -31368973 -31368974 31368975 31368976 -31368977 -31368978 -31368979
v -31368980 31368981 -31368982 -31368983 31368984 31368985 -31368986 -31368987
v -31368988 31368989 -31368990 31368991 -31368992 -31368993 31368994 31368995
v -31368996 -31368997 -31368998 -31368999 31369000 -31369001 -31369002
v 31369003 31369004 -31369005 -31369006 -31369007 31369008 -31369009 31369010
v -31369011 -31369012 31369013 31369014 -31369015 -31369016 -31369017
v -31369018 31369019 -31369020 -31369021 31369022 31369023 -31369024 -31369025
v -31369026 31369027 -31369028 31369029 -31369030 -31369031 31369032 31369033
v -31369034 -31369035 -31369036 -31369037 31369038 -31369039 -31369040
v 31369041 31369042 -31369043 -31369044 -31369045 31369046 -31369047 31369048
v -31369049 -31369050 31369051 31369052 -31369053 -31369054 -31369055
v -31369056 31369057 -31369058 -31369059 31369060 31369061 -31369062 -31369063
v -31369064 31369065 -31369066 31369067 -31369068 -31369069 31369070 31369071
v -31369072 -31369073 -31369074 -31369075 31369076 -31369077 -31369078
v 31369079 31369080 -31369081 -31369082 -31369083 31369084 -31369085 31369086
v -31369087 -31369088 31369089 31369090 -31369091 -31369092 -31369093
v -31369094 31369095 -31369096 -31369097 31369098 31369099 -31369100 -31369101
v -31369102 31369103 -31369104 31369105 -31369106 -31369107 31369108 31369109
v -31369110 -31369111 -31369112 -31369113 31369114 -31369115 -31369116
v 31369117 31369118 -31369119 -31369120 -31369121 31369122 -31369123 31369124
v -31369125 -31369126 31369127 31369128 -31369129 -31369130 -31369131
v -31369132 31369133 -31369134 -31369135 31369136 31369137 -31369138 -31369139
v -31369140 31369141 -31369142 31369143 -31369144 -31369145 31369146 31369147
v -31369148 -31369149 -31369150 -31369151 31369152 -31369153 -31369154
v 31369155 31369156 -31369157 -31369158 -31369159 31369160 -31369161 31369162
v -31369163 -31369164 31369165 31369166 -31369167 -31369168 -31369169
v -31369170 31369171 -31369172 -31369173 31369174 31369175 -31369176 -31369177
v -31369178 31369179 -31369180 31369181 -31369182 -31369183 31369184 31369185
v -31369186 -31369187 -31369188 -31369189 31369190 -31369191 -31369192
v 31369193 31369194 -31369195 -31369196 -31369197 31369198 -31369199 31369200
v -31369201 -31369202 -31369203 31369204 -31369205 -31369206 -31369207
v -31369208 31369209 -31369210 31369211 -31369212 -31369213 -31369214 31369215
v -31369216 31369217 -31369218 31369219 -31369220 0
c 
c --- [ run-time profiling ] -------------------------------------------------
c 
c process time taken by individual solving procedures
c (percentage relative to process time for solving)
c 
c        55.32  100.00% search
c        28.37   51.29% unstable
c        25.25   45.65% stable
c        16.14   29.17% parse
c         1.69    3.06% lucky
c         0.00    0.00% simplify
c   =================================
c        55.32   75.76% solve
c 
c last line shows process time for solving
c (percentage relative to total process time)
c 
c --- [ statistics ] ---------------------------------------------------------
c 
c chronological:              1536        69.79 %  of conflicts
c conflicts:                  2201        39.79    per second
c decisions:                655746     11853.84    per second
c fixed:                   5148266        16.41 %  of all variables
c learned:                    2125        96.55 %  per conflict
c learned_lits:              20954       100.00 %  learned literals
c minimized:                     0         0.00 %  learned literals
c shrunken:                   2549        12.16 %  learned literals
c minishrunken:               1000         4.77 %  learned literals
c otfs:                         12         0.55 %  of conflict
c propagations:          309011654         5.59 M  per second
c rephased:                      1      2201.00    interval
c restarts:                     53        41.53    interval
c stabilizing:                   1        54.57 %  of conflicts
c subsumed:                     21         0.00 %  of all clauses
c strengthened:                 12         0.00 %  of all clauses
c 
c seconds are measured in process time for solving
c 
c --- [ resources ] ----------------------------------------------------------
c 
c total process time since initialization:        73.02    seconds
c total real time since initialization:           73.72    seconds
c maximum resident set size of process:        14040.78    MB
c 
c --- [ shutting down ] ------------------------------------------------------
c 
c exit 10
